c The cardinality of a maximum matching is 128.
c Bi-partite graph

p edge 256 1631
e 1 129
e 1 141
e 1 161
e 1 176
e 1 177
e 1 189
e 1 207
e 1 210
e 1 215
e 1 243
e 1 246
e 1 251
e 1 254
e 2 129
e 2 132
e 2 135
e 2 143
e 2 152
e 2 165
e 2 177
e 2 182
e 2 225
e 2 231
e 2 234
e 2 242
e 2 243
e 3 168
e 3 171
e 3 181
e 3 187
e 3 203
e 3 207
e 3 229
e 3 230
e 3 234
e 3 256
e 4 132
e 4 133
e 4 143
e 4 149
e 4 154
e 4 160
e 4 176
e 4 178
e 4 220
e 5 132
e 5 136
e 5 150
e 5 154
e 5 180
e 5 183
e 5 186
e 5 187
e 5 205
e 5 222
e 5 228
e 5 230
e 5 231
e 5 237
e 5 243
e 6 137
e 6 146
e 6 172
e 6 186
e 6 201
e 6 206
e 6 207
e 6 209
e 6 210
e 6 215
e 6 237
e 7 131
e 7 140
e 7 147
e 7 153
e 7 162
e 7 173
e 7 179
e 7 183
e 7 186
e 7 201
e 7 213
e 7 218
e 7 225
e 7 233
e 8 168
e 8 177
e 8 178
e 8 182
e 8 190
e 8 194
e 8 217
e 8 226
e 8 231
e 8 233
e 8 237
e 8 242
e 9 132
e 9 169
e 9 171
e 9 172
e 9 176
e 9 192
e 9 195
e 9 196
e 9 215
e 9 221
e 9 226
e 9 232
e 9 233
e 9 247
e 9 253
e 10 130
e 10 147
e 10 157
e 10 161
e 10 167
e 10 173
e 10 176
e 10 187
e 10 189
e 10 195
e 10 203
e 10 219
e 10 223
e 10 226
e 10 229
e 10 233
e 10 246
e 10 249
e 10 250
e 10 251
e 11 132
e 11 134
e 11 138
e 11 139
e 11 152
e 11 157
e 11 161
e 11 175
e 11 177
e 11 180
e 11 198
e 11 201
e 11 209
e 11 220
e 11 238
e 11 248
e 11 250
e 11 256
e 12 159
e 12 188
e 12 196
e 12 202
e 12 207
e 12 211
e 12 214
e 12 216
e 12 226
e 12 228
e 12 232
e 12 251
e 13 131
e 13 134
e 13 144
e 13 145
e 13 149
e 13 153
e 13 155
e 13 164
e 13 168
e 13 184
e 13 188
e 13 196
e 13 203
e 13 220
e 13 221
e 13 233
e 13 234
e 13 235
e 13 248
e 14 138
e 14 139
e 14 178
e 14 192
e 14 193
e 14 194
e 14 200
e 14 211
e 14 212
e 14 221
e 14 226
e 15 132
e 15 135
e 15 148
e 15 151
e 15 152
e 15 157
e 15 196
e 15 205
e 15 208
e 15 220
e 15 226
e 15 228
e 15 239
e 15 243
e 16 134
e 16 138
e 16 140
e 16 144
e 16 145
e 16 177
e 16 180
e 16 198
e 16 203
e 16 206
e 16 214
e 16 227
e 16 228
e 16 243
e 16 252
e 16 255
e 17 141
e 17 143
e 17 145
e 17 155
e 17 185
e 17 194
e 17 197
e 17 212
e 17 216
e 17 234
e 17 243
e 17 253
e 17 256
e 18 130
e 18 136
e 18 142
e 18 152
e 18 154
e 18 158
e 18 163
e 18 187
e 18 194
e 18 208
e 18 214
e 18 250
e 18 255
e 19 129
e 19 135
e 19 140
e 19 147
e 19 165
e 19 166
e 19 180
e 19 183
e 19 232
e 19 248
e 19 251
e 19 254
e 20 133
e 20 148
e 20 158
e 20 168
e 20 185
e 20 187
e 20 189
e 20 195
e 20 197
e 20 223
e 20 228
e 20 232
e 20 237
e 20 255
e 21 133
e 21 141
e 21 146
e 21 149
e 21 155
e 21 174
e 21 180
e 21 184
e 21 186
e 21 248
e 21 253
e 22 142
e 22 159
e 22 161
e 22 166
e 22 174
e 22 180
e 22 185
e 22 186
e 22 203
e 22 213
e 22 237
e 22 247
e 22 248
e 22 254
e 23 131
e 23 135
e 23 136
e 23 149
e 23 150
e 23 159
e 23 165
e 23 171
e 23 186
e 23 194
e 23 198
e 23 200
e 23 201
e 23 206
e 23 208
e 23 219
e 23 237
e 23 248
e 24 129
e 24 142
e 24 146
e 24 161
e 24 164
e 24 195
e 24 196
e 24 198
e 24 199
e 24 202
e 24 215
e 24 225
e 24 233
e 24 237
e 24 253
e 25 145
e 25 162
e 25 175
e 25 189
e 25 193
e 25 210
e 25 215
e 25 234
e 25 245
e 26 154
e 26 160
e 26 176
e 26 185
e 26 186
e 26 189
e 26 206
e 26 211
e 26 218
e 26 221
e 26 237
e 27 129
e 27 139
e 27 145
e 27 158
e 27 168
e 27 177
e 27 180
e 27 189
e 27 190
e 27 201
e 27 220
e 27 229
e 27 234
e 27 254
e 28 137
e 28 143
e 28 145
e 28 148
e 28 155
e 28 172
e 28 174
e 28 183
e 28 188
e 28 194
e 28 199
e 28 216
e 28 232
e 28 237
e 28 245
e 28 255
e 29 142
e 29 143
e 29 165
e 29 168
e 29 169
e 29 192
e 29 197
e 29 201
e 29 228
e 29 240
e 29 245
e 29 247
e 29 254
e 29 255
e 30 173
e 30 183
e 30 206
e 30 232
e 30 242
e 30 244
e 30 254
e 30 256
e 31 136
e 31 148
e 31 162
e 31 164
e 31 182
e 31 185
e 31 190
e 31 198
e 31 228
e 31 241
e 32 131
e 32 144
e 32 152
e 32 159
e 32 162
e 32 165
e 32 185
e 32 186
e 32 188
e 32 192
e 32 211
e 32 212
e 32 223
e 32 224
e 32 255
e 33 137
e 33 141
e 33 149
e 33 159
e 33 167
e 33 169
e 33 216
e 33 221
e 33 229
e 33 242
e 33 245
e 33 251
e 33 256
e 34 130
e 34 157
e 34 175
e 34 177
e 34 183
e 34 209
e 34 211
e 34 213
e 34 219
e 34 240
e 34 243
e 34 246
e 34 249
e 34 255
e 35 133
e 35 156
e 35 166
e 35 175
e 35 181
e 35 191
e 35 200
e 35 210
e 35 212
e 35 213
e 35 238
e 35 248
e 36 129
e 36 134
e 36 159
e 36 164
e 36 165
e 36 171
e 36 176
e 36 184
e 36 188
e 36 192
e 36 219
e 36 225
e 36 256
e 37 135
e 37 143
e 37 167
e 37 176
e 37 181
e 37 184
e 37 185
e 37 190
e 37 192
e 37 220
e 37 222
e 37 225
e 37 239
e 37 242
e 38 131
e 38 143
e 38 167
e 38 169
e 38 172
e 38 176
e 38 192
e 38 194
e 38 199
e 38 205
e 38 209
e 38 255
e 38 256
e 39 149
e 39 151
e 39 165
e 39 166
e 39 170
e 39 177
e 39 181
e 39 185
e 39 197
e 39 199
e 39 204
e 39 213
e 39 225
e 39 226
e 39 228
e 39 240
e 39 243
e 39 255
e 40 132
e 40 163
e 40 164
e 40 205
e 40 215
e 40 221
e 40 222
e 40 251
e 40 256
e 41 137
e 41 173
e 41 220
e 41 226
e 41 228
e 41 231
e 41 251
e 42 144
e 42 200
e 42 201
e 42 212
e 42 235
e 42 237
e 42 242
e 42 246
e 43 130
e 43 131
e 43 136
e 43 150
e 43 155
e 43 186
e 43 190
e 43 191
e 43 193
e 43 201
e 43 206
e 43 215
e 43 220
e 43 227
e 43 241
e 43 242
e 43 256
e 44 135
e 44 137
e 44 146
e 44 152
e 44 158
e 44 163
e 44 181
e 44 194
e 44 203
e 44 219
e 44 238
e 44 239
e 44 241
e 44 248
e 45 131
e 45 133
e 45 136
e 45 145
e 45 162
e 45 171
e 45 177
e 45 184
e 45 188
e 45 194
e 45 196
e 45 216
e 45 220
e 45 229
e 45 241
e 45 253
e 46 136
e 46 138
e 46 150
e 46 153
e 46 163
e 46 166
e 46 202
e 46 217
e 46 224
e 46 236
e 46 253
e 47 140
e 47 153
e 47 174
e 47 175
e 47 180
e 47 199
e 47 201
e 47 210
e 47 216
e 47 217
e 47 220
e 47 221
e 47 225
e 47 231
e 47 245
e 47 247
e 48 130
e 48 135
e 48 150
e 48 163
e 48 185
e 48 186
e 48 191
e 48 200
e 48 207
e 48 210
e 48 226
e 48 236
e 48 244
e 48 247
e 48 252
e 49 143
e 49 148
e 49 150
e 49 151
e 49 162
e 49 170
e 49 216
e 49 220
e 49 223
e 49 227
e 49 233
e 49 241
e 49 244
e 49 247
e 50 137
e 50 138
e 50 147
e 50 148
e 50 174
e 50 194
e 50 206
e 50 214
e 50 224
e 50 238
e 50 244
e 50 254
e 50 256
e 51 134
e 51 136
e 51 151
e 51 153
e 51 156
e 51 185
e 51 188
e 51 200
e 51 216
e 51 232
e 51 245
e 51 252
e 52 130
e 52 142
e 52 146
e 52 152
e 52 164
e 52 171
e 52 179
e 52 185
e 52 189
e 52 203
e 52 208
e 52 212
e 52 219
e 52 228
e 53 132
e 53 140
e 53 150
e 53 156
e 53 159
e 53 162
e 53 175
e 53 190
e 53 206
e 53 213
e 53 218
e 53 228
e 53 233
e 53 255
e 54 144
e 54 149
e 54 151
e 54 162
e 54 171
e 54 174
e 54 177
e 54 180
e 54 186
e 54 190
e 54 194
e 54 195
e 54 208
e 54 212
e 54 217
e 54 223
e 54 225
e 54 231
e 54 233
e 54 237
e 54 243
e 55 131
e 55 132
e 55 133
e 55 134
e 55 153
e 55 157
e 55 159
e 55 189
e 55 201
e 55 210
e 55 221
e 55 244
e 56 130
e 56 146
e 56 155
e 56 160
e 56 172
e 56 197
e 56 209
e 56 212
e 56 244
e 56 246
e 57 141
e 57 154
e 57 164
e 57 179
e 57 182
e 57 189
e 57 199
e 57 201
e 57 238
e 57 245
e 58 132
e 58 141
e 58 219
e 58 220
e 58 227
e 58 228
e 58 230
e 58 241
e 58 255
e 59 129
e 59 139
e 59 147
e 59 154
e 59 156
e 59 159
e 59 160
e 59 172
e 59 188
e 59 189
e 59 205
e 59 236
e 59 245
e 59 251
e 60 130
e 60 153
e 60 155
e 60 176
e 60 188
e 60 218
e 60 223
e 60 243
e 60 252
e 60 255
e 61 129
e 61 134
e 61 135
e 61 151
e 61 162
e 61 166
e 61 170
e 61 177
e 61 185
e 61 190
e 61 213
e 61 215
e 61 220
e 61 224
e 61 239
e 61 241
e 61 242
e 61 243
e 61 251
e 62 138
e 62 159
e 62 161
e 62 168
e 62 183
e 62 199
e 62 201
e 62 202
e 62 203
e 62 240
e 62 251
e 62 253
e 62 255
e 63 131
e 63 132
e 63 136
e 63 137
e 63 150
e 63 163
e 63 168
e 63 192
e 63 208
e 63 217
e 63 239
e 64 132
e 64 189
e 64 196
e 64 204
e 64 205
e 64 211
e 64 213
e 64 221
e 64 246
e 64 249
e 65 136
e 65 139
e 65 146
e 65 166
e 65 174
e 65 187
e 65 200
e 65 207
e 65 229
e 65 238
e 66 133
e 66 148
e 66 177
e 66 189
e 66 193
e 66 200
e 66 205
e 66 238
e 66 247
e 66 248
e 66 255
e 67 129
e 67 143
e 67 155
e 67 159
e 67 166
e 67 167
e 67 169
e 67 178
e 67 190
e 67 215
e 67 228
e 67 242
e 67 247
e 67 249
e 67 250
e 68 137
e 68 138
e 68 150
e 68 167
e 68 172
e 68 173
e 68 183
e 68 188
e 68 203
e 68 208
e 68 226
e 69 145
e 69 156
e 69 172
e 69 179
e 69 207
e 69 220
e 69 221
e 69 254
e 70 142
e 70 147
e 70 160
e 70 171
e 70 178
e 70 179
e 70 180
e 70 197
e 70 229
e 70 231
e 70 242
e 70 249
e 71 130
e 71 143
e 71 144
e 71 145
e 71 151
e 71 158
e 71 167
e 71 177
e 71 188
e 71 191
e 71 206
e 71 209
e 71 234
e 71 236
e 71 248
e 71 254
e 72 131
e 72 137
e 72 138
e 72 153
e 72 156
e 72 157
e 72 161
e 72 172
e 72 174
e 72 177
e 72 196
e 72 214
e 72 222
e 72 224
e 72 230
e 72 233
e 72 236
e 72 240
e 73 136
e 73 148
e 73 151
e 73 156
e 73 157
e 73 159
e 73 167
e 73 169
e 73 204
e 73 224
e 73 225
e 73 228
e 73 235
e 73 243
e 73 252
e 73 253
e 74 158
e 74 160
e 74 179
e 74 180
e 74 187
e 74 199
e 74 200
e 74 207
e 74 210
e 74 212
e 74 213
e 74 216
e 74 225
e 74 242
e 74 243
e 74 253
e 75 131
e 75 140
e 75 169
e 75 179
e 75 180
e 75 187
e 75 190
e 75 209
e 75 230
e 75 241
e 75 245
e 76 130
e 76 136
e 76 159
e 76 168
e 76 184
e 76 222
e 76 223
e 76 225
e 76 230
e 77 132
e 77 141
e 77 153
e 77 156
e 77 158
e 77 168
e 77 192
e 77 193
e 77 205
e 77 211
e 77 212
e 77 219
e 77 224
e 77 243
e 77 245
e 77 247
e 77 254
e 78 149
e 78 154
e 78 159
e 78 160
e 78 162
e 78 201
e 78 215
e 78 222
e 78 223
e 78 248
e 78 253
e 79 134
e 79 136
e 79 150
e 79 157
e 79 204
e 79 210
e 79 225
e 79 231
e 79 248
e 79 254
e 80 134
e 80 140
e 80 161
e 80 167
e 80 181
e 80 185
e 80 190
e 80 199
e 80 219
e 80 245
e 80 253
e 81 129
e 81 146
e 81 149
e 81 174
e 81 185
e 81 195
e 81 201
e 81 208
e 81 212
e 81 223
e 81 230
e 81 244
e 82 139
e 82 150
e 82 152
e 82 163
e 82 174
e 82 176
e 82 184
e 82 195
e 82 196
e 82 210
e 82 212
e 82 217
e 82 219
e 82 232
e 82 238
e 82 241
e 82 252
e 83 129
e 83 139
e 83 140
e 83 152
e 83 154
e 83 171
e 83 174
e 83 202
e 83 210
e 83 214
e 83 219
e 83 221
e 83 222
e 83 231
e 83 254
e 84 135
e 84 140
e 84 169
e 84 197
e 84 212
e 84 221
e 84 223
e 84 226
e 84 230
e 84 233
e 84 237
e 84 246
e 85 135
e 85 141
e 85 146
e 85 151
e 85 186
e 85 213
e 85 214
e 85 216
e 85 221
e 85 224
e 85 241
e 85 248
e 85 252
e 85 254
e 86 154
e 86 163
e 86 164
e 86 173
e 86 184
e 86 185
e 86 201
e 86 217
e 86 220
e 86 235
e 86 250
e 86 252
e 87 137
e 87 142
e 87 147
e 87 156
e 87 165
e 87 171
e 87 172
e 87 186
e 87 193
e 87 222
e 87 234
e 87 236
e 88 153
e 88 157
e 88 160
e 88 161
e 88 167
e 88 168
e 88 187
e 88 201
e 88 209
e 88 214
e 88 217
e 88 252
e 88 253
e 89 145
e 89 149
e 89 152
e 89 153
e 89 156
e 89 161
e 89 173
e 89 185
e 89 192
e 89 212
e 89 216
e 89 222
e 89 224
e 89 232
e 89 234
e 90 156
e 90 158
e 90 162
e 90 170
e 90 172
e 90 182
e 90 184
e 90 204
e 90 221
e 90 229
e 90 237
e 90 240
e 90 247
e 90 248
e 90 249
e 90 253
e 91 130
e 91 141
e 91 143
e 91 149
e 91 164
e 91 182
e 91 197
e 91 202
e 91 214
e 91 217
e 91 218
e 91 229
e 91 230
e 91 237
e 91 238
e 91 248
e 92 130
e 92 139
e 92 154
e 92 162
e 92 187
e 92 189
e 92 202
e 92 209
e 92 213
e 92 230
e 92 245
e 93 149
e 93 153
e 93 174
e 93 181
e 93 184
e 93 194
e 93 197
e 93 209
e 93 238
e 93 246
e 94 133
e 94 143
e 94 157
e 94 170
e 94 179
e 94 193
e 94 196
e 94 198
e 94 229
e 94 232
e 94 237
e 95 129
e 95 164
e 95 184
e 95 188
e 95 189
e 95 194
e 95 195
e 95 220
e 95 222
e 95 234
e 95 240
e 95 244
e 95 249
e 95 256
e 96 137
e 96 163
e 96 183
e 96 196
e 96 217
e 96 230
e 96 238
e 96 252
e 97 143
e 97 181
e 97 201
e 97 218
e 97 250
e 98 129
e 98 132
e 98 137
e 98 153
e 98 161
e 98 163
e 98 171
e 98 173
e 98 179
e 98 192
e 98 195
e 98 199
e 98 202
e 98 204
e 98 231
e 98 252
e 99 135
e 99 142
e 99 172
e 99 179
e 99 184
e 99 187
e 99 190
e 99 212
e 99 213
e 99 226
e 99 229
e 99 251
e 100 129
e 100 130
e 100 142
e 100 148
e 100 160
e 100 174
e 100 230
e 100 234
e 100 245
e 100 251
e 100 253
e 101 152
e 101 159
e 101 171
e 101 181
e 101 192
e 101 214
e 101 216
e 101 219
e 101 244
e 102 138
e 102 151
e 102 161
e 102 170
e 102 175
e 102 176
e 102 177
e 102 181
e 102 184
e 102 188
e 102 192
e 102 210
e 102 221
e 102 240
e 103 144
e 103 152
e 103 173
e 103 179
e 103 195
e 103 206
e 103 211
e 103 228
e 104 144
e 104 147
e 104 167
e 104 170
e 104 191
e 104 221
e 104 228
e 104 234
e 104 236
e 104 237
e 104 249
e 104 251
e 105 134
e 105 140
e 105 143
e 105 151
e 105 152
e 105 163
e 105 171
e 105 185
e 105 205
e 105 212
e 105 227
e 105 244
e 105 248
e 105 253
e 106 131
e 106 142
e 106 147
e 106 157
e 106 169
e 106 181
e 106 183
e 106 199
e 106 226
e 106 241
e 106 246
e 106 248
e 106 252
e 107 165
e 107 178
e 107 185
e 107 191
e 107 193
e 107 197
e 107 203
e 107 236
e 107 247
e 107 252
e 108 130
e 108 146
e 108 166
e 108 208
e 108 212
e 108 222
e 108 230
e 108 238
e 108 246
e 108 249
e 108 250
e 109 158
e 109 169
e 109 172
e 109 195
e 109 206
e 109 215
e 109 218
e 109 221
e 109 223
e 109 225
e 109 233
e 109 240
e 109 246
e 109 250
e 110 142
e 110 146
e 110 161
e 110 176
e 110 190
e 110 197
e 110 205
e 110 212
e 110 217
e 110 218
e 110 232
e 110 250
e 111 135
e 111 148
e 111 151
e 111 161
e 111 165
e 111 171
e 111 175
e 111 200
e 111 202
e 111 203
e 111 208
e 111 210
e 111 218
e 111 220
e 111 226
e 111 237
e 111 254
e 112 150
e 112 153
e 112 158
e 112 172
e 112 198
e 112 209
e 112 214
e 112 220
e 112 225
e 112 233
e 112 238
e 112 241
e 112 254
e 113 131
e 113 141
e 113 146
e 113 148
e 113 162
e 113 175
e 113 176
e 113 187
e 113 227
e 114 153
e 114 175
e 114 184
e 114 195
e 114 231
e 114 235
e 114 251
e 114 253
e 115 145
e 115 170
e 115 208
e 115 209
e 115 230
e 115 237
e 115 245
e 116 129
e 116 135
e 116 138
e 116 151
e 116 153
e 116 162
e 116 172
e 116 178
e 116 188
e 116 198
e 116 208
e 116 209
e 116 211
e 116 214
e 116 238
e 116 256
e 117 156
e 117 169
e 117 174
e 117 175
e 117 179
e 117 187
e 117 199
e 117 209
e 117 233
e 117 254
e 118 129
e 118 144
e 118 153
e 118 164
e 118 182
e 118 184
e 118 204
e 118 209
e 118 222
e 118 231
e 118 236
e 118 251
e 118 255
e 119 132
e 119 136
e 119 144
e 119 145
e 119 152
e 119 165
e 119 167
e 119 172
e 119 184
e 119 185
e 119 193
e 119 198
e 119 201
e 119 242
e 119 252
e 120 130
e 120 131
e 120 139
e 120 150
e 120 154
e 120 166
e 120 167
e 120 212
e 120 216
e 120 236
e 120 247
e 120 248
e 120 256
e 121 133
e 121 136
e 121 175
e 121 196
e 121 207
e 121 231
e 121 237
e 121 241
e 121 245
e 121 255
e 121 256
e 122 136
e 122 141
e 122 148
e 122 158
e 122 173
e 122 177
e 122 179
e 122 199
e 122 214
e 122 225
e 122 226
e 122 239
e 122 252
e 122 256
e 123 133
e 123 137
e 123 166
e 123 168
e 123 190
e 123 192
e 123 202
e 123 234
e 123 254
e 123 256
e 124 135
e 124 162
e 124 173
e 124 190
e 124 192
e 124 205
e 124 212
e 124 213
e 124 227
e 124 238
e 124 248
e 125 142
e 125 147
e 125 157
e 125 159
e 125 172
e 125 183
e 125 186
e 125 202
e 125 234
e 125 239
e 125 244
e 125 247
e 126 130
e 126 145
e 126 193
e 126 194
e 126 198
e 126 210
e 126 212
e 126 246
e 126 247
e 126 251
e 127 135
e 127 143
e 127 145
e 127 150
e 127 176
e 127 178
e 127 181
e 127 215
e 127 222
e 127 225
e 127 226
e 127 238
e 127 245
e 127 255
e 128 130
e 128 133
e 128 142
e 128 152
e 128 157
e 128 178
e 128 185
e 128 189
e 128 204
e 128 221
e 128 242
e 128 245
